sifdecoder -A pc64.lnx.gfo -st   GRIDNETI

 Problem name: GRIDNETI

 Double precision version will be formed

 The objective function uses 1 nonlinear group
 
 There are 3844 linear equality constraints
 
 There are 5043 free variables
 There are 2521 variables bounded only from below 
 
 
 File successfully decoded
 CUTEST: tools (double precision version) compiled successfully
 CUTEst: ipopt (double precision version) compiled successfully

******************************************************************************
This program contains Ipopt, a library for large-scale nonlinear optimization.
 Ipopt is released as open source code under the Eclipse Public License (EPL).
         For more information visit http://projects.coin-or.org/Ipopt
******************************************************************************

This is Ipopt version trunk, running with linear solver ma57.

Number of nonzeros in equality constraint Jacobian...:    15128
Number of nonzeros in inequality constraint Jacobian.:        0
Number of nonzeros in Lagrangian Hessian.............:    16838

Reallocating memory for MA57: lfact (495380)
Total number of variables............................:     7564
                     variables with only lower bounds:     2521
                variables with lower and upper bounds:        0
                     variables with only upper bounds:        0
Total number of equality constraints.................:     3844
Total number of inequality constraints...............:        0
        inequality constraints with only lower bounds:        0
   inequality constraints with lower and upper bounds:        0
        inequality constraints with only upper bounds:        0

iter    objective    inf_pr   inf_du lg(mu)  ||d||  lg(rg) alpha_du alpha_pr  ls
   0  8.2915846e+01 1.00e+01 1.03e+00  -1.0 0.00e+00    -  0.00e+00 0.00e+00   0
   1  8.3244135e+01 9.83e+00 1.29e+00  -1.0 9.61e+00    -  1.12e-02 1.72e-02f  1
   2  8.9119658e+01 8.77e+00 2.94e+00  -1.0 9.43e+00    -  2.96e-02 1.08e-01f  1
   3  9.0289840e+01 8.65e+00 6.93e+00  -1.0 7.79e+00    -  6.18e-02 1.42e-02f  1
   4  1.0136086e+02 7.81e+00 5.32e+00  -1.0 5.18e+00    -  3.45e-02 9.70e-02f  1
   5  2.6814427e+02 2.13e+00 8.45e+01  -1.0 4.86e+00    -  5.72e-02 7.28e-01f  1
   6  2.9246132e+02 4.15e-07 9.19e+00  -1.0 2.32e+00    -  3.21e-01 1.00e+00f  1
   7  3.0458285e+02 9.55e-08 4.10e+00  -1.0 1.20e+00    -  3.79e-01 1.00e+00f  1
   8  3.1971629e+02 7.73e-09 2.16e+00  -1.0 1.21e+00    -  5.36e-01 1.00e+00f  1
   9  3.3356889e+02 3.11e-15 2.84e-01  -1.0 1.14e+00    -  8.65e-01 1.00e+00f  1
iter    objective    inf_pr   inf_du lg(mu)  ||d||  lg(rg) alpha_du alpha_pr  ls
  10  2.7668879e+02 3.38e-08 7.95e-01  -1.7 1.51e+00    -  6.40e-01 1.00e+00f  1
  11  2.6608396e+02 6.49e-09 4.36e-01  -1.7 3.31e-01    -  7.48e-01 1.00e+00f  1
  12  2.6362252e+02 9.77e-10 3.47e-04  -1.7 1.31e-01    -  1.00e+00 1.00e+00f  1
  13  2.5024213e+02 1.59e-10 5.08e-01  -3.8 7.40e-01    -  4.84e-01 8.38e-01f  1
  14  2.4620607e+02 1.09e-09 4.71e-01  -3.8 2.89e-01    -  4.84e-01 8.51e-01f  1
  15  2.4450019e+02 4.11e-10 2.72e-01  -3.8 1.85e-01    -  5.73e-01 1.00e+00f  1
  16  2.4395379e+02 1.11e-15 1.02e-01  -3.8 9.72e-02    -  6.61e-01 1.00e+00f  1
  17  2.4376840e+02 1.50e-10 5.77e-02  -3.8 4.70e-02    -  6.42e-01 1.00e+00f  1
  18  2.4372137e+02 4.10e-11 2.22e-06  -3.8 1.36e-02    -  1.00e+00 1.00e+00f  1
  19  2.4357747e+02 2.50e-11 4.75e-03  -5.7 3.23e-02    -  8.05e-01 8.93e-01f  1
iter    objective    inf_pr   inf_du lg(mu)  ||d||  lg(rg) alpha_du alpha_pr  ls
  20  2.4355103e+02 3.01e-12 2.43e-04  -5.7 1.32e-02    -  9.03e-01 8.80e-01f  1
  21  2.4354513e+02 2.77e-12 2.77e-04  -5.7 6.70e-03    -  1.00e+00 9.69e-01f  1
Reallocating memory for MA57: lfact (523362)
  22  2.4354448e+02 8.88e-16 7.80e-08  -5.7 2.64e-03    -  1.00e+00 1.00e+00f  1
  23  2.4354265e+02 1.78e-15 1.83e-04  -8.6 2.33e-03    -  9.36e-01 8.59e-01f  1
  24  2.4354237e+02 4.04e-14 1.10e-04  -8.6 1.22e-03    -  1.00e+00 8.54e-01f  1
  25  2.4354232e+02 1.50e-14 1.26e-06  -8.6 6.17e-04    -  1.00e+00 9.97e-01f  1
  26  2.4354232e+02 3.72e-15 2.83e-10  -8.6 2.38e-04    -  1.00e+00 1.00e+00f  1
  27  2.4354231e+02 8.88e-16 5.71e-11  -9.0 1.21e-04    -  1.00e+00 1.00e+00h  1

Number of Iterations....: 27

                                   (scaled)                 (unscaled)
Objective...............:   2.4354231396634231e+02    2.4354231396634231e+02
Dual infeasibility......:   5.7085842997128822e-11    5.7085842997128822e-11
Constraint violation....:   8.8817841970012523e-16    8.8817841970012523e-16
Complementarity.........:   4.2911357117923294e-09    4.2911357117923294e-09
Overall NLP error.......:   4.2911357117923294e-09    4.2911357117923294e-09


Number of objective function evaluations             = 28
Number of objective gradient evaluations             = 28
Number of equality constraint evaluations            = 28
Number of inequality constraint evaluations          = 0
Number of equality constraint Jacobian evaluations   = 28
Number of inequality constraint Jacobian evaluations = 0
Number of Lagrangian Hessian evaluations             = 27
Total CPU secs in IPOPT (w/o function evaluations)   =      0.538
Total CPU secs in NLP function evaluations           =      0.047

EXIT: Optimal Solution Found.

************************ CUTEst statistics ************************


 Package used            :  IPOPT
 Problem                 :  GRIDNETI  
 # variables             =            7564
 # constraints           =            3844
 # objective functions   =        0.5700000E+02
 # objective gradients   =        0.2900000E+02
 # objective Hessians    =        0.2800000E+02
 # Hessian-vector prdct  =        0.0000000E+00
 # constraints functions =        0.5800000E+02
 # constraints gradients =        0.3000000E+02
 # constraints Hessians  =        0.2800000E+02
 Exit code               =               0
 Final f                 =        2.4354231396634231D+02
 Bounds feasibility      =        9.9651063234507120D-09
 Set up time             =            0.65 seconds
 Solve time              =            0.77 seconds


******************************************************************

